Maximize
  - 39 x0 - 45 x1 + 0 x2 + 0 x3 + 0 x4 + 0 x5 + 0 x6 + 0 x7 - 45 x8 - 34 x9
   - 18 x10 + 20 x11 + 0 x12 + 0 x13 + 0 x14 - 42 x15 + 0 x16 + 0 x17
   + 0 x18 + 0 x19 + 27 x20 + 8 x21 - 37 x22 + 47 x23 + 15 x24 + 0 x25
   + 32 x26 + 0 x27 + 23 x28 + 47 x29 - 25 x30 - 40 x31 + 0 x32 - 6 x33
   - 6 x34 + 0 x35 - 5 x36 - 40 x37 + 37 x38 + 0 x39 + [ - 14 x0 ^2
   + 34 x0 * x1 - 14 x0 * x2 - 88 x0 * x3 - 88 x0 * x5 - 94 x0 * x6
   + 50 x0 * x8 + 48 x0 * x9 + 52 x0 * x10 - 72 x0 * x11 + 80 x0 * x12
   + 6 x0 * x14 - 36 x0 * x20 - 82 x0 * x22 - 62 x0 * x26 + 22 x0 * x27
   - 12 x0 * x29 + 26 x0 * x30 + 4 x0 * x32 + 12 x0 * x34 - 32 x0 * x36
   - 72 x1 * x2 + 26 x1 * x6 - 26 x1 * x7 - 82 x1 * x9 - 94 x1 * x11
   - 42 x1 * x12 + 64 x1 * x13 - 42 x1 * x15 - 24 x1 * x16 + 72 x1 * x17
   - 48 x1 * x19 - 84 x1 * x27 + 2 x1 * x29 - 30 x1 * x30 - 46 x1 * x31
   - 8 x1 * x34 - 60 x1 * x36 - 12 x1 * x37 - 58 x1 * x38 + 62 x2 * x4
   - 74 x2 * x5 - 20 x2 * x6 - 92 x2 * x9 - 48 x2 * x10 - 84 x2 * x13
   - 46 x2 * x14 + 14 x2 * x17 - 58 x2 * x22 - 56 x2 * x23 - 6 x2 * x25
   - 6 x2 * x26 - 24 x2 * x33 - 70 x2 * x35 + 70 x2 * x36 - 16 x2 * x39
   + 80 x3 * x5 - 98 x3 * x6 - 8 x3 * x7 - 94 x3 * x9 - 22 x3 * x10
   + 14 x3 * x12 - 54 x3 * x13 - 4 x3 * x14 + 6 x3 * x16 - 18 x3 * x17
   + 92 x3 * x21 - 52 x3 * x22 + 30 x3 * x24 + 2 x3 * x27 - 82 x3 * x31
   - 62 x3 * x33 + 86 x3 * x34 + 40 x3 * x38 - 96 x3 * x39 - 8 x4 ^2
   - 4 x4 * x6 + 28 x4 * x7 - 36 x4 * x8 + 54 x4 * x9 - 96 x4 * x10
   + 92 x4 * x12 + 46 x4 * x17 + 84 x4 * x24 + 82 x4 * x25 - 84 x4 * x27
   + 80 x4 * x32 + 94 x4 * x33 - 50 x4 * x34 + 6 x4 * x36 + 28 x4 * x37
   - 5 x5 ^2 + 82 x5 * x9 + 78 x5 * x10 - 94 x5 * x14 - 64 x5 * x16
   + 14 x5 * x17 + 20 x5 * x19 - 32 x5 * x21 + 6 x5 * x24 - 20 x5 * x25
   + 82 x5 * x27 - 92 x5 * x34 - 34 x5 * x37 + 76 x5 * x39 + 10 x6 * x9
   + 16 x6 * x10 - 78 x6 * x11 - 10 x6 * x13 - 84 x6 * x15 + 76 x6 * x16
   + 28 x6 * x23 - 28 x6 * x24 - 72 x6 * x27 - 20 x6 * x29 + 92 x6 * x30
   + 50 x6 * x32 - 96 x6 * x33 - 90 x6 * x39 - 38 x7 ^2 - 56 x7 * x9
   - 82 x7 * x10 + 16 x7 * x14 + 76 x7 * x15 + 50 x7 * x23 + 14 x7 * x28
   - 30 x7 * x29 - 26 x7 * x30 - 56 x7 * x34 + 64 x7 * x35 + 92 x7 * x37
   + 72 x7 * x38 + 60 x7 * x39 - 72 x8 * x12 - 10 x8 * x15 - 6 x8 * x16
   + 54 x8 * x17 - 90 x8 * x18 + 98 x8 * x19 + 70 x8 * x22 + 40 x8 * x25
   + 42 x8 * x27 - 60 x8 * x28 + 6 x8 * x30 + 14 x8 * x31 - 92 x8 * x34
   + 8 x8 * x35 - 74 x8 * x36 + 94 x9 * x11 + 98 x9 * x12 - 32 x9 * x13
   - 50 x9 * x14 - 14 x9 * x16 + 50 x9 * x19 - 46 x9 * x22 - 90 x9 * x23
   + 76 x9 * x25 + 30 x9 * x29 - 68 x9 * x32 - 44 x9 * x33 - 36 x9 * x34
   - 10 x9 * x35 + 62 x9 * x36 + 96 x9 * x38 + 14 x9 * x39 - 13 x10 ^2
   - 18 x10 * x12 - 2 x10 * x13 + 56 x10 * x16 + 18 x10 * x17
   + 42 x10 * x18 + 72 x10 * x20 - 42 x10 * x22 + 18 x10 * x24
   + 8 x10 * x27 + 96 x10 * x28 - 22 x10 * x29 - 28 x10 * x31 - 4 x10 * x32
   + 42 x10 * x33 + 64 x10 * x35 - 88 x10 * x36 + 60 x11 * x13
   + 6 x11 * x14 + 80 x11 * x19 - 28 x11 * x21 + 16 x11 * x23
   - 84 x11 * x25 + 20 x11 * x30 - 8 x11 * x32 + 2 x11 * x34 - 94 x11 * x38
   + 58 x12 * x13 - 50 x12 * x15 + 74 x12 * x18 - 8 x12 * x20
   - 40 x12 * x21 + 10 x12 * x22 + 52 x12 * x23 - 44 x12 * x24
   - 98 x12 * x26 + 52 x12 * x27 - 46 x12 * x28 + 20 x12 * x30
   + 6 x12 * x31 - 6 x12 * x33 - 98 x12 * x34 + 90 x12 * x35 + 86 x12 * x37
   - 2 x12 * x38 - 22 x12 * x39 + 94 x13 * x16 + 32 x13 * x17
   + 42 x13 * x19 + 14 x13 * x20 - 14 x13 * x22 + 12 x13 * x23
   + 4 x13 * x25 + 48 x13 * x26 - 70 x13 * x28 + 56 x13 * x29
   + 72 x13 * x30 + 70 x13 * x31 + 32 x13 * x35 + 2 x13 * x36
   - 30 x13 * x38 + 50 x14 * x15 - 78 x14 * x17 + 14 x14 * x18
   + 88 x14 * x20 + 70 x14 * x21 - 46 x14 * x23 + 10 x14 * x24
   + 34 x14 * x25 + 10 x14 * x29 + 56 x14 * x30 - 70 x14 * x31
   + 26 x14 * x33 - 88 x14 * x36 - 62 x14 * x38 + 72 x15 * x16
   - 66 x15 * x21 + 72 x15 * x22 - 80 x15 * x23 + 20 x15 * x25
   + 80 x15 * x26 - 60 x15 * x27 - 68 x15 * x28 + 62 x15 * x29
   - 36 x15 * x30 - 18 x15 * x32 + 70 x15 * x33 + 32 x15 * x34
   - 88 x15 * x35 - 2 x15 * x36 + 4 x16 ^2 + 70 x16 * x18 + 88 x16 * x27
   + 44 x16 * x28 + 38 x16 * x30 + 32 x16 * x32 + 96 x16 * x33
   + 86 x16 * x35 + 38 x16 * x37 + 70 x17 * x18 + 22 x17 * x19
   - 2 x17 * x20 - 26 x17 * x21 - 92 x17 * x22 + 76 x17 * x23
   + 16 x17 * x24 + 4 x17 * x26 + 88 x17 * x27 - 20 x17 * x30
   - 86 x17 * x31 - 56 x17 * x32 - 50 x17 * x33 - 70 x17 * x34
   + 16 x17 * x38 + 42 x18 * x23 + 76 x18 * x24 - 48 x18 * x27
   + 18 x18 * x28 + 74 x18 * x30 - 18 x18 * x31 - 26 x18 * x32
   + 94 x18 * x34 + 56 x18 * x35 + 64 x18 * x38 - 80 x19 * x20
   + 74 x19 * x21 + 88 x19 * x22 - 92 x19 * x25 - 12 x19 * x26
   - 66 x19 * x29 + 14 x19 * x30 - 66 x19 * x31 - 64 x19 * x33
   - 4 x19 * x34 + 60 x19 * x36 - 12 x19 * x37 + 52 x19 * x38
   - 24 x19 * x39 + 27 x20 ^2 - 16 x20 * x24 - 62 x20 * x25 - 24 x20 * x28
   - 94 x20 * x29 + 20 x20 * x30 + 14 x20 * x33 + 96 x20 * x35
   + 56 x20 * x36 + 96 x20 * x37 - 68 x20 * x38 - 98 x20 * x39 - 38 x21 ^2
   - 70 x21 * x25 + 94 x21 * x26 - 74 x21 * x30 + 14 x21 * x31
   + 4 x21 * x33 + 84 x21 * x34 - 16 x21 * x35 + 26 x21 * x36
   - 22 x21 * x37 + 22 x22 ^2 + 6 x22 * x25 - 76 x22 * x26 - 96 x22 * x33
   + 76 x22 * x34 - 68 x22 * x36 - 28 x22 * x37 - 70 x22 * x38
   + 8 x23 * x28 + 56 x23 * x30 - 94 x23 * x33 - 46 x23 * x35
   + 36 x24 * x26 - 28 x24 * x36 - 25 x25 ^2 + 26 x25 * x27 + 82 x25 * x28
   + 8 x25 * x32 - 12 x25 * x35 + 98 x25 * x36 - 70 x25 * x38
   + 78 x25 * x39 + 26 x26 ^2 - 96 x26 * x27 + 32 x26 * x28 - 66 x26 * x29
   + 82 x26 * x30 - 28 x26 * x31 - 84 x26 * x33 - 78 x26 * x35
   + 2 x26 * x37 + 68 x27 * x32 - 24 x27 * x34 - 70 x27 * x35
   - 22 x27 * x37 - 66 x27 * x39 + 3 x28 ^2 - 18 x28 * x29 + 60 x28 * x30
   - 88 x28 * x31 - 20 x28 * x33 + 44 x28 * x34 + 18 x28 * x35
   - 98 x28 * x37 - 98 x28 * x39 - 14 x29 * x32 - 62 x29 * x34
   + 62 x29 * x35 - 88 x29 * x36 + 76 x29 * x38 + 82 x29 * x39
   + 50 x30 * x32 - 28 x30 * x34 - 62 x30 * x36 + 48 x30 * x39 + 46 x31 ^2
   - 68 x31 * x32 + 70 x31 * x34 - 16 x31 * x36 - 58 x31 * x37
   - 94 x31 * x38 + 96 x31 * x39 + 76 x32 * x33 + 54 x32 * x36
   + 66 x32 * x37 - 46 x32 * x38 - 82 x32 * x39 - 82 x33 * x35 + 48 x34 ^2
   - 62 x34 * x35 + 16 x34 * x36 - 92 x34 * x38 + 68 x34 * x39
   + 32 x35 * x36 + 16 x36 * x38 + 50 x36 * x39 + 9 x37 ^2 + 8 x37 * x38
   - 38 x38 ^2 + 40 x38 * x39 ] / 2 
Subject To
Bounds
 x0 <= 1
 x1 <= 1
 x2 <= 1
 x3 <= 1
 x4 <= 1
 x5 <= 1
 x6 <= 1
 x7 <= 1
 x8 <= 1
 x9 <= 1
 x10 <= 1
 x11 <= 1
 x12 <= 1
 x13 <= 1
 x14 <= 1
 x15 <= 1
 x16 <= 1
 x17 <= 1
 x18 <= 1
 x19 <= 1
 x20 <= 1
 x21 <= 1
 x22 <= 1
 x23 <= 1
 x24 <= 1
 x25 <= 1
 x26 <= 1
 x27 <= 1
 x28 <= 1
 x29 <= 1
 x30 <= 1
 x31 <= 1
 x32 <= 1
 x33 <= 1
 x34 <= 1
 x35 <= 1
 x36 <= 1
 x37 <= 1
 x38 <= 1
 x39 <= 1
End
